54917
33, 42, 2, 14, 9, 34, 53, 23, 10, 22, 29, 21, 17, 48, 19, 32, 41, 8, 44, 38, 50, 20, 24, 35, 5, 37, 7, 40, 51, 13, 43, 3, 6, 28, 55, 49, 26, 54, 47, 4, 30, 18, 12, 16, 39, 46, 36, 15, 52, 45, 11, 25, 31, 27, 1
